(set-logic HORN)

(declare-fun $main_sum117 ((Array Int Int) (Array Int Int) (Array Int Int) (Array Int Int) (Array Int Int) Int Int Int (Array Int Int) (Array Int Int) (Array Int Int) (Array Int Int) (Array Int Int) Int Int Int) Bool)
(declare-fun $main_inv114 ((Array Int Int) (Array Int Int) (Array Int Int) (Array Int Int) (Array Int Int) Int Int Int) Bool)
(declare-fun __VERIFIER_assert (Int) Bool)
(declare-fun $__VERIFIER_assert_ERROR (Int Int) Bool)
(declare-fun $main_sum114 ((Array Int Int) (Array Int Int) (Array Int Int) (Array Int Int) (Array Int Int) Int Int Int (Array Int Int) (Array Int Int) (Array Int Int) (Array Int Int) (Array Int Int) Int Int Int) Bool)
(declare-fun $main_sum118 ((Array Int Int) (Array Int Int) (Array Int Int) (Array Int Int) (Array Int Int) Int Int Int (Array Int Int) (Array Int Int) (Array Int Int) (Array Int Int) (Array Int Int) Int Int Int) Bool)
(declare-fun $main_sum116 ((Array Int Int) (Array Int Int) (Array Int Int) (Array Int Int) (Array Int Int) Int Int Int (Array Int Int) (Array Int Int) (Array Int Int) (Array Int Int) (Array Int Int) Int Int Int) Bool)
(declare-fun $main_inv117 ((Array Int Int) (Array Int Int) (Array Int Int) (Array Int Int) (Array Int Int) Int Int Int) Bool)
(declare-fun $__VERIFIER_assert_if49 (Int Int) Bool)
(declare-fun $main_inv113 ((Array Int Int) (Array Int Int) (Array Int Int) (Array Int Int) (Array Int Int) Int Int Int) Bool)
(declare-fun $__VERIFIER_assert_pre (Int) Bool)
(declare-fun $main_inv115 ((Array Int Int) (Array Int Int) (Array Int Int) (Array Int Int) (Array Int Int) Int Int Int) Bool)
(declare-fun $main_sum113 ((Array Int Int) (Array Int Int) (Array Int Int) (Array Int Int) (Array Int Int) Int Int Int (Array Int Int) (Array Int Int) (Array Int Int) (Array Int Int) (Array Int Int) Int Int Int) Bool)
(declare-fun $main_inv116 ((Array Int Int) (Array Int Int) (Array Int Int) (Array Int Int) (Array Int Int) Int Int Int) Bool)
(declare-fun $main_sum115 ((Array Int Int) (Array Int Int) (Array Int Int) (Array Int Int) (Array Int Int) Int Int Int (Array Int Int) (Array Int Int) (Array Int Int) (Array Int Int) (Array Int Int) Int Int Int) Bool)
(declare-fun $main_inv118 ((Array Int Int) (Array Int Int) (Array Int Int) (Array Int Int) (Array Int Int) Int Int Int) Bool)

; label ERROR
(assert
  (forall ((cond Int))
    (=> (and (= cond 0)
             ($__VERIFIER_assert_pre cond))
        ($__VERIFIER_assert_ERROR cond cond))))

; error
(assert
  (forall ((cond Int) (cond2400 Int))
    (=> (and ($__VERIFIER_assert_ERROR cond cond2400))
        false)))

; if else
(assert
  (forall ((cond Int))
    (=> (and (not (= cond 0))
             ($__VERIFIER_assert_pre cond))
        ($__VERIFIER_assert_if49 cond cond))))

; post __VERIFIER_assert
(assert
  (forall ((cond2401 Int) (cond Int))
    (=> (and ($__VERIFIER_assert_if49 cond cond2401))
        (__VERIFIER_assert cond2401))))

; loop entry $main_inv113
(assert
  (forall (($a4193 (Array Int Int)) ($a5194 (Array Int Int)) ($i196 Int) ($a1190 (Array Int Int)) ($x197 Int) ($a2191 (Array Int Int)) ($a3192 (Array Int Int)))
        ($main_inv113 $a1190 $a2191 $a3192 $a4193 $a5194 0 $i196 $x197)))

; loop term $main_sum113
(assert
  (forall (($a21912403 (Array Int Int)) ($a41932405 (Array Int Int)) ($a31922404 (Array Int Int)) ($a1952407 Int) ($i1962408 Int) ($x1972409 Int) ($a51942406 (Array Int Int)) ($a11902402 (Array Int Int)))
    (=> (and (not (< $a1952407 100000)))
        ($main_sum113 $a11902402 $a21912403 $a31922404 $a41932405 $a51942406 $a1952407 $i1962408 $x1972409 $a11902402 $a21912403 $a31922404 $a41932405 $a51942406 $a1952407 $i1962408 $x1972409))))

; forwards $main_inv113
(assert
  (forall (($a21912403 (Array Int Int)) ($a41932405 (Array Int Int)) ($int2410 Int) ($a31922404 (Array Int Int)) ($a1952407 Int) ($i1962408 Int) ($x1972409 Int) ($a51942406 (Array Int Int)) ($a11902402 (Array Int Int)))
    (=> (and (<= (- 2147483648) $int2410)
             (<= $int2410 2147483647)
             (< $a1952407 100000)
             ($main_inv113 $a11902402 $a21912403 $a31922404 $a41932405 $a51942406 $a1952407 $i1962408 $x1972409))
        ($main_inv113 (store $a11902402 $a1952407 $int2410) $a21912403 $a31922404 $a41932405 $a51942406 (+ $a1952407 1) $i1962408 $x1972409))))

; backwards $main_sum113
(assert
  (forall (($a21912403 (Array Int Int)) ($a51942415 (Array Int Int)) ($a41932405 (Array Int Int)) ($a21912412 (Array Int Int)) ($a31922404 (Array Int Int)) ($i1962417 Int) ($a1952416 Int) ($a41932414 (Array Int Int)) ($x1972418 Int) ($i1962408 Int) ($x1972409 Int) ($a51942406 (Array Int Int)) ($a11902402 (Array Int Int)) ($int2410 Int) ($a31922413 (Array Int Int)) ($a1952407 Int) ($a11902411 (Array Int Int)))
    (=> (and ($main_sum113 (store $a11902402 $a1952407 $int2410) $a21912403 $a31922404 $a41932405 $a51942406 (+ $a1952407 1) $i1962408 $x1972409 $a11902411 $a21912412 $a31922413 $a41932414 $a51942415 $a1952416 $i1962417 $x1972418)
             (<= (- 2147483648) $int2410)
             (<= $int2410 2147483647)
             (< $a1952407 100000))
        ($main_sum113 $a11902402 $a21912403 $a31922404 $a41932405 $a51942406 $a1952407 $i1962408 $x1972409 $a11902411 $a21912412 $a31922413 $a41932414 $a51942415 $a1952416 $i1962417 $x1972418))))

; loop entry $main_inv114
(assert
  (forall (($a4193 (Array Int Int)) ($a5194 (Array Int Int)) ($a51942423 (Array Int Int)) ($x1972426 Int) ($i196 Int) ($x197 Int) ($a11902419 (Array Int Int)) ($i1962425 Int) ($a41932422 (Array Int Int)) ($a21912420 (Array Int Int)) ($a3192 (Array Int Int)) ($a1190 (Array Int Int)) ($a1952424 Int) ($a31922421 (Array Int Int)) ($a2191 (Array Int Int)))
    (=> (and ($main_sum113 $a1190 $a2191 $a3192 $a4193 $a5194 0 $i196 $x197 $a11902419 $a21912420 $a31922421 $a41932422 $a51942423 $a1952424 $i1962425 $x1972426))
        ($main_inv114 $a11902419 $a21912420 $a31922421 $a41932422 $a51942423 $a1952424 0 $x1972426))))

; loop term $main_sum114
(assert
  (forall (($x1972434 Int) ($a21912428 (Array Int Int)) ($a31922429 (Array Int Int)) ($i1962433 Int) ($a41932430 (Array Int Int)) ($a11902427 (Array Int Int)) ($a51942431 (Array Int Int)) ($a1952432 Int))
    (=> (and (not (< $i1962433 100000)))
        ($main_sum114 $a11902427 $a21912428 $a31922429 $a41932430 $a51942431 $a1952432 $i1962433 $x1972434 $a11902427 $a21912428 $a31922429 $a41932430 $a51942431 $a1952432 $i1962433 $x1972434))))

; forwards $main_inv114
(assert
  (forall (($x1972434 Int) ($a21912428 (Array Int Int)) ($a31922429 (Array Int Int)) ($i1962433 Int) ($a41932430 (Array Int Int)) ($a11902427 (Array Int Int)) ($a51942431 (Array Int Int)) ($a1952432 Int))
    (=> (and (< $i1962433 100000)
             ($main_inv114 $a11902427 $a21912428 $a31922429 $a41932430 $a51942431 $a1952432 $i1962433 $x1972434))
        ($main_inv114 $a11902427 (store $a21912428 $i1962433 (select $a11902427 $i1962433)) $a31922429 $a41932430 $a51942431 $a1952432 (+ $i1962433 1) $x1972434))))

; backwards $main_sum114
(assert
  (forall (($a41932438 (Array Int Int)) ($x1972434 Int) ($i1962441 Int) ($a31922429 (Array Int Int)) ($i1962433 Int) ($a11902427 (Array Int Int)) ($a21912436 (Array Int Int)) ($a51942431 (Array Int Int)) ($a1952432 Int) ($a21912428 (Array Int Int)) ($a1952440 Int) ($a51942439 (Array Int Int)) ($x1972442 Int) ($a11902435 (Array Int Int)) ($a41932430 (Array Int Int)) ($a31922437 (Array Int Int)))
    (=> (and ($main_sum114 $a11902427 (store $a21912428 $i1962433 (select $a11902427 $i1962433)) $a31922429 $a41932430 $a51942431 $a1952432 (+ $i1962433 1) $x1972434 $a11902435 $a21912436 $a31922437 $a41932438 $a51942439 $a1952440 $i1962441 $x1972442)
             (< $i1962433 100000))
        ($main_sum114 $a11902427 $a21912428 $a31922429 $a41932430 $a51942431 $a1952432 $i1962433 $x1972434 $a11902435 $a21912436 $a31922437 $a41932438 $a51942439 $a1952440 $i1962441 $x1972442))))

; loop entry $main_inv115
(assert
  (forall (($a11902443 (Array Int Int)) ($a4193 (Array Int Int)) ($x1972450 Int) ($a5194 (Array Int Int)) ($a51942423 (Array Int Int)) ($x1972426 Int) ($i196 Int) ($a41932446 (Array Int Int)) ($x197 Int) ($i1962425 Int) ($a31922445 (Array Int Int)) ($a41932422 (Array Int Int)) ($i1962449 Int) ($a21912420 (Array Int Int)) ($a1952448 Int) ($a1190 (Array Int Int)) ($a1952424 Int) ($a11902419 (Array Int Int)) ($a21912444 (Array Int Int)) ($a31922421 (Array Int Int)) ($a2191 (Array Int Int)) ($a3192 (Array Int Int)) ($a51942447 (Array Int Int)))
    (=> (and ($main_sum114 $a11902419 $a21912420 $a31922421 $a41932422 $a51942423 $a1952424 0 $x1972426 $a11902443 $a21912444 $a31922445 $a41932446 $a51942447 $a1952448 $i1962449 $x1972450)
             ($main_sum113 $a1190 $a2191 $a3192 $a4193 $a5194 0 $i196 $x197 $a11902419 $a21912420 $a31922421 $a41932422 $a51942423 $a1952424 $i1962425 $x1972426))
        ($main_inv115 $a11902443 $a21912444 $a31922445 $a41932446 $a51942447 $a1952448 0 $x1972450))))

; loop term $main_sum115
(assert
  (forall (($x1972458 Int) ($a51942455 (Array Int Int)) ($a11902451 (Array Int Int)) ($i1962457 Int) ($a31922453 (Array Int Int)) ($a1952456 Int) ($a21912452 (Array Int Int)) ($a41932454 (Array Int Int)))
    (=> (and (not (< $i1962457 100000)))
        ($main_sum115 $a11902451 $a21912452 $a31922453 $a41932454 $a51942455 $a1952456 $i1962457 $x1972458 $a11902451 $a21912452 $a31922453 $a41932454 $a51942455 $a1952456 $i1962457 $x1972458))))

; forwards $main_inv115
(assert
  (forall (($x1972458 Int) ($a51942455 (Array Int Int)) ($a11902451 (Array Int Int)) ($i1962457 Int) ($a31922453 (Array Int Int)) ($a1952456 Int) ($a21912452 (Array Int Int)) ($a41932454 (Array Int Int)))
    (=> (and (< $i1962457 100000)
             ($main_inv115 $a11902451 $a21912452 $a31922453 $a41932454 $a51942455 $a1952456 $i1962457 $x1972458))
        ($main_inv115 $a11902451 $a21912452 (store $a31922453 $i1962457 (select $a21912452 $i1962457)) $a41932454 $a51942455 $a1952456 (+ $i1962457 1) $x1972458))))

; backwards $main_sum115
(assert
  (forall (($i1962465 Int) ($a41932462 (Array Int Int)) ($x1972458 Int) ($a21912460 (Array Int Int)) ($a51942455 (Array Int Int)) ($a51942463 (Array Int Int)) ($a11902451 (Array Int Int)) ($i1962457 Int) ($x1972466 Int) ($a31922453 (Array Int Int)) ($a1952456 Int) ($a31922461 (Array Int Int)) ($a21912452 (Array Int Int)) ($a41932454 (Array Int Int)) ($a1952464 Int) ($a11902459 (Array Int Int)))
    (=> (and ($main_sum115 $a11902451 $a21912452 (store $a31922453 $i1962457 (select $a21912452 $i1962457)) $a41932454 $a51942455 $a1952456 (+ $i1962457 1) $x1972458 $a11902459 $a21912460 $a31922461 $a41932462 $a51942463 $a1952464 $i1962465 $x1972466)
             (< $i1962457 100000))
        ($main_sum115 $a11902451 $a21912452 $a31922453 $a41932454 $a51942455 $a1952456 $i1962457 $x1972458 $a11902459 $a21912460 $a31922461 $a41932462 $a51942463 $a1952464 $i1962465 $x1972466))))

; loop entry $main_inv116
(assert
  (forall (($a4193 (Array Int Int)) ($x1972450 Int) ($a51942423 (Array Int Int)) ($x1972474 Int) ($x1972426 Int) ($a41932470 (Array Int Int)) ($a41932446 (Array Int Int)) ($x197 Int) ($a31922445 (Array Int Int)) ($a41932422 (Array Int Int)) ($i1962449 Int) ($a1952448 Int) ($a11902443 (Array Int Int)) ($i1962473 Int) ($a31922469 (Array Int Int)) ($a5194 (Array Int Int)) ($i196 Int) ($a1952472 Int) ($a1190 (Array Int Int)) ($a1952424 Int) ($a11902419 (Array Int Int)) ($a21912468 (Array Int Int)) ($a21912444 (Array Int Int)) ($a11902467 (Array Int Int)) ($i1962425 Int) ($a21912420 (Array Int Int)) ($a51942471 (Array Int Int)) ($a31922421 (Array Int Int)) ($a2191 (Array Int Int)) ($a3192 (Array Int Int)) ($a51942447 (Array Int Int)))
    (=> (and ($main_sum115 $a11902443 $a21912444 $a31922445 $a41932446 $a51942447 $a1952448 0 $x1972450 $a11902467 $a21912468 $a31922469 $a41932470 $a51942471 $a1952472 $i1962473 $x1972474)
             ($main_sum114 $a11902419 $a21912420 $a31922421 $a41932422 $a51942423 $a1952424 0 $x1972426 $a11902443 $a21912444 $a31922445 $a41932446 $a51942447 $a1952448 $i1962449 $x1972450)
             ($main_sum113 $a1190 $a2191 $a3192 $a4193 $a5194 0 $i196 $x197 $a11902419 $a21912420 $a31922421 $a41932422 $a51942423 $a1952424 $i1962425 $x1972426))
        ($main_inv116 $a11902467 $a21912468 $a31922469 $a41932470 $a51942471 $a1952472 0 $x1972474))))

; loop term $main_sum116
(assert
  (forall (($a21912476 (Array Int Int)) ($a11902475 (Array Int Int)) ($a1952480 Int) ($a51942479 (Array Int Int)) ($a31922477 (Array Int Int)) ($i1962481 Int) ($a41932478 (Array Int Int)) ($x1972482 Int))
    (=> (and (not (< $i1962481 100000)))
        ($main_sum116 $a11902475 $a21912476 $a31922477 $a41932478 $a51942479 $a1952480 $i1962481 $x1972482 $a11902475 $a21912476 $a31922477 $a41932478 $a51942479 $a1952480 $i1962481 $x1972482))))

; forwards $main_inv116
(assert
  (forall (($a21912476 (Array Int Int)) ($a11902475 (Array Int Int)) ($a1952480 Int) ($a51942479 (Array Int Int)) ($a31922477 (Array Int Int)) ($i1962481 Int) ($a41932478 (Array Int Int)) ($x1972482 Int))
    (=> (and (< $i1962481 100000)
             ($main_inv116 $a11902475 $a21912476 $a31922477 $a41932478 $a51942479 $a1952480 $i1962481 $x1972482))
        ($main_inv116 $a11902475 $a21912476 $a31922477 (store $a41932478 $i1962481 (select $a31922477 $i1962481)) $a51942479 $a1952480 (+ $i1962481 1) $x1972482))))

; backwards $main_sum116
(assert
  (forall (($a21912484 (Array Int Int)) ($a51942487 (Array Int Int)) ($a21912476 (Array Int Int)) ($a11902475 (Array Int Int)) ($a31922485 (Array Int Int)) ($a1952480 Int) ($x1972490 Int) ($a51942479 (Array Int Int)) ($a11902483 (Array Int Int)) ($a31922477 (Array Int Int)) ($i1962481 Int) ($a1952488 Int) ($a41932478 (Array Int Int)) ($x1972482 Int) ($i1962489 Int) ($a41932486 (Array Int Int)))
    (=> (and ($main_sum116 $a11902475 $a21912476 $a31922477 (store $a41932478 $i1962481 (select $a31922477 $i1962481)) $a51942479 $a1952480 (+ $i1962481 1) $x1972482 $a11902483 $a21912484 $a31922485 $a41932486 $a51942487 $a1952488 $i1962489 $x1972490)
             (< $i1962481 100000))
        ($main_sum116 $a11902475 $a21912476 $a31922477 $a41932478 $a51942479 $a1952480 $i1962481 $x1972482 $a11902483 $a21912484 $a31922485 $a41932486 $a51942487 $a1952488 $i1962489 $x1972490))))

; loop entry $main_inv117
(assert
  (forall (($a4193 (Array Int Int)) ($x1972450 Int) ($a51942423 (Array Int Int)) ($x1972474 Int) ($x1972426 Int) ($i1962497 Int) ($a41932470 (Array Int Int)) ($a41932446 (Array Int Int)) ($x197 Int) ($a31922445 (Array Int Int)) ($a41932422 (Array Int Int)) ($i1962449 Int) ($a11902491 (Array Int Int)) ($a11902443 (Array Int Int)) ($i1962473 Int) ($a51942495 (Array Int Int)) ($a31922493 (Array Int Int)) ($a31922469 (Array Int Int)) ($a5194 (Array Int Int)) ($x1972498 Int) ($a21912492 (Array Int Int)) ($i196 Int) ($a1952472 Int) ($a1190 (Array Int Int)) ($a1952424 Int) ($a41932494 (Array Int Int)) ($a11902419 (Array Int Int)) ($a21912468 (Array Int Int)) ($a21912444 (Array Int Int)) ($a11902467 (Array Int Int)) ($i1962425 Int) ($a21912420 (Array Int Int)) ($a51942471 (Array Int Int)) ($a31922421 (Array Int Int)) ($a2191 (Array Int Int)) ($a3192 (Array Int Int)) ($a51942447 (Array Int Int)) ($a1952496 Int) ($a1952448 Int))
    (=> (and ($main_sum116 $a11902467 $a21912468 $a31922469 $a41932470 $a51942471 $a1952472 0 $x1972474 $a11902491 $a21912492 $a31922493 $a41932494 $a51942495 $a1952496 $i1962497 $x1972498)
             ($main_sum115 $a11902443 $a21912444 $a31922445 $a41932446 $a51942447 $a1952448 0 $x1972450 $a11902467 $a21912468 $a31922469 $a41932470 $a51942471 $a1952472 $i1962473 $x1972474)
             ($main_sum114 $a11902419 $a21912420 $a31922421 $a41932422 $a51942423 $a1952424 0 $x1972426 $a11902443 $a21912444 $a31922445 $a41932446 $a51942447 $a1952448 $i1962449 $x1972450)
             ($main_sum113 $a1190 $a2191 $a3192 $a4193 $a5194 0 $i196 $x197 $a11902419 $a21912420 $a31922421 $a41932422 $a51942423 $a1952424 $i1962425 $x1972426))
        ($main_inv117 $a11902491 $a21912492 $a31922493 $a41932494 $a51942495 $a1952496 0 $x1972498))))

; loop term $main_sum117
(assert
  (forall (($a51942503 (Array Int Int)) ($a11902499 (Array Int Int)) ($a31922501 (Array Int Int)) ($a1952504 Int) ($a21912500 (Array Int Int)) ($x1972506 Int) ($a41932502 (Array Int Int)) ($i1962505 Int))
    (=> (and (not (< $i1962505 100000)))
        ($main_sum117 $a11902499 $a21912500 $a31922501 $a41932502 $a51942503 $a1952504 $i1962505 $x1972506 $a11902499 $a21912500 $a31922501 $a41932502 $a51942503 $a1952504 $i1962505 $x1972506))))

; forwards $main_inv117
(assert
  (forall (($a51942503 (Array Int Int)) ($a11902499 (Array Int Int)) ($a31922501 (Array Int Int)) ($a1952504 Int) ($a21912500 (Array Int Int)) ($x1972506 Int) ($a41932502 (Array Int Int)) ($i1962505 Int))
    (=> (and (< $i1962505 100000)
             ($main_inv117 $a11902499 $a21912500 $a31922501 $a41932502 $a51942503 $a1952504 $i1962505 $x1972506))
        ($main_inv117 $a11902499 $a21912500 $a31922501 $a41932502 (store $a51942503 $i1962505 (select $a41932502 $i1962505)) $a1952504 (+ $i1962505 1) $x1972506))))

; backwards $main_sum117
(assert
  (forall (($a11902507 (Array Int Int)) ($a51942503 (Array Int Int)) ($a31922509 (Array Int Int)) ($x1972514 Int) ($a21912508 (Array Int Int)) ($a51942511 (Array Int Int)) ($i1962513 Int) ($a11902499 (Array Int Int)) ($a31922501 (Array Int Int)) ($a1952504 Int) ($a21912500 (Array Int Int)) ($x1972506 Int) ($a41932510 (Array Int Int)) ($a41932502 (Array Int Int)) ($i1962505 Int) ($a1952512 Int))
    (=> (and ($main_sum117 $a11902499 $a21912500 $a31922501 $a41932502 (store $a51942503 $i1962505 (select $a41932502 $i1962505)) $a1952504 (+ $i1962505 1) $x1972506 $a11902507 $a21912508 $a31922509 $a41932510 $a51942511 $a1952512 $i1962513 $x1972514)
             (< $i1962505 100000))
        ($main_sum117 $a11902499 $a21912500 $a31922501 $a41932502 $a51942503 $a1952504 $i1962505 $x1972506 $a11902507 $a21912508 $a31922509 $a41932510 $a51942511 $a1952512 $i1962513 $x1972514))))

; loop entry $main_inv118
(assert
  (forall (($a4193 (Array Int Int)) ($x1972450 Int) ($a51942423 (Array Int Int)) ($a41932518 (Array Int Int)) ($x1972426 Int) ($i1962497 Int) ($a41932470 (Array Int Int)) ($a41932446 (Array Int Int)) ($x197 Int) ($a51942519 (Array Int Int)) ($a31922445 (Array Int Int)) ($a41932422 (Array Int Int)) ($a11902491 (Array Int Int)) ($a11902443 (Array Int Int)) ($a1952520 Int) ($i1962473 Int) ($a51942495 (Array Int Int)) ($a31922493 (Array Int Int)) ($a31922469 (Array Int Int)) ($a5194 (Array Int Int)) ($x1972522 Int) ($a11902515 (Array Int Int)) ($x1972474 Int) ($a21912516 (Array Int Int)) ($x1972498 Int) ($a21912492 (Array Int Int)) ($i196 Int) ($a1952472 Int) ($a1190 (Array Int Int)) ($a1952424 Int) ($a41932494 (Array Int Int)) ($a11902419 (Array Int Int)) ($a21912468 (Array Int Int)) ($a21912444 (Array Int Int)) ($i1962521 Int) ($a11902467 (Array Int Int)) ($i1962425 Int) ($a31922517 (Array Int Int)) ($i1962449 Int) ($a21912420 (Array Int Int)) ($a51942471 (Array Int Int)) ($a31922421 (Array Int Int)) ($a2191 (Array Int Int)) ($a3192 (Array Int Int)) ($a51942447 (Array Int Int)) ($a1952496 Int) ($a1952448 Int))
    (=> (and ($main_sum117 $a11902491 $a21912492 $a31922493 $a41932494 $a51942495 $a1952496 0 $x1972498 $a11902515 $a21912516 $a31922517 $a41932518 $a51942519 $a1952520 $i1962521 $x1972522)
             ($main_sum116 $a11902467 $a21912468 $a31922469 $a41932470 $a51942471 $a1952472 0 $x1972474 $a11902491 $a21912492 $a31922493 $a41932494 $a51942495 $a1952496 $i1962497 $x1972498)
             ($main_sum115 $a11902443 $a21912444 $a31922445 $a41932446 $a51942447 $a1952448 0 $x1972450 $a11902467 $a21912468 $a31922469 $a41932470 $a51942471 $a1952472 $i1962473 $x1972474)
             ($main_sum114 $a11902419 $a21912420 $a31922421 $a41932422 $a51942423 $a1952424 0 $x1972426 $a11902443 $a21912444 $a31922445 $a41932446 $a51942447 $a1952448 $i1962449 $x1972450)
             ($main_sum113 $a1190 $a2191 $a3192 $a4193 $a5194 0 $i196 $x197 $a11902419 $a21912420 $a31922421 $a41932422 $a51942423 $a1952424 $i1962425 $x1972426))
        ($main_inv118 $a11902515 $a21912516 $a31922517 $a41932518 $a51942519 $a1952520 $i1962521 0))))

; loop term $main_sum118
(assert
  (forall (($a51942527 (Array Int Int)) ($a31922525 (Array Int Int)) ($a21912524 (Array Int Int)) ($a11902523 (Array Int Int)) ($i1962529 Int) ($x1972530 Int) ($a41932526 (Array Int Int)) ($a1952528 Int))
    (=> (and (not (< $x1972530 100000)))
        ($main_sum118 $a11902523 $a21912524 $a31922525 $a41932526 $a51942527 $a1952528 $i1962529 $x1972530 $a11902523 $a21912524 $a31922525 $a41932526 $a51942527 $a1952528 $i1962529 $x1972530))))

; __VERIFIER_assert precondition
(assert
  (forall (($a51942527 (Array Int Int)) ($a31922525 (Array Int Int)) ($a21912524 (Array Int Int)) ($a11902523 (Array Int Int)) ($i1962529 Int) ($x1972530 Int) ($a41932526 (Array Int Int)) ($a1952528 Int))
    (=> (and (< $x1972530 100000)
             ($main_inv118 $a11902523 $a21912524 $a31922525 $a41932526 $a51942527 $a1952528 $i1962529 $x1972530))
        ($__VERIFIER_assert_pre (ite (= (select $a11902523 $x1972530) (select $a51942527 $x1972530)) 1 0)))))

; forwards $main_inv118
(assert
  (forall (($a51942527 (Array Int Int)) ($a31922525 (Array Int Int)) ($a21912524 (Array Int Int)) ($a11902523 (Array Int Int)) ($i1962529 Int) ($x1972530 Int) ($a41932526 (Array Int Int)) ($a1952528 Int))
    (=> (and (__VERIFIER_assert (ite (= (select $a11902523 $x1972530) (select $a51942527 $x1972530)) 1 0))
             (< $x1972530 100000)
             ($main_inv118 $a11902523 $a21912524 $a31922525 $a41932526 $a51942527 $a1952528 $i1962529 $x1972530))
        ($main_inv118 $a11902523 $a21912524 $a31922525 $a41932526 $a51942527 $a1952528 $i1962529 (+ $x1972530 1)))))

; backwards $main_sum118
(assert
  (forall (($a21912532 (Array Int Int)) ($a21912524 (Array Int Int)) ($i1962529 Int) ($x1972530 Int) ($a41932526 (Array Int Int)) ($i1962537 Int) ($a31922533 (Array Int Int)) ($a41932534 (Array Int Int)) ($a1952536 Int) ($a1952528 Int) ($a51942527 (Array Int Int)) ($a11902531 (Array Int Int)) ($a31922525 (Array Int Int)) ($a51942535 (Array Int Int)) ($x1972538 Int) ($a11902523 (Array Int Int)))
    (=> (and ($main_sum118 $a11902523 $a21912524 $a31922525 $a41932526 $a51942527 $a1952528 $i1962529 (+ $x1972530 1) $a11902531 $a21912532 $a31922533 $a41932534 $a51942535 $a1952536 $i1962537 $x1972538)
             (__VERIFIER_assert (ite (= (select $a11902523 $x1972530) (select $a51942527 $x1972530)) 1 0))
             (< $x1972530 100000))
        ($main_sum118 $a11902523 $a21912524 $a31922525 $a41932526 $a51942527 $a1952528 $i1962529 $x1972530 $a11902531 $a21912532 $a31922533 $a41932534 $a51942535 $a1952536 $i1962537 $x1972538))))

(check-sat)
